<instance format="XCSP3" type="CSP">
  <variables>
    <array id="x" size="[570]"> 0 1 </array>
  </variables>
  <constraints>
    <group>
      <sum>
        <list> %... </list>
        <coeffs> -1 1 1 1 1 1 1 1 1 1 </coeffs>
        <condition> (ge,0) </condition>
      </sum>
      <args> x[27] x[443..451] </args>
      <args> x[9] x[461..469] </args>
      <args> x[340] x[380..388] </args>
      <args> x[220] x[380..388] </args>
      <args> x[128] x[452..460] </args>
      <args> x[40] x[380..388] </args>
      <args> x[267] x[443..451] </args>
      <args> x[265] x[425..433] </args>
      <args> x[3] x[407..415] </args>
      <args> x[180] x[380..388] </args>
      <args> x[104] x[416..424] </args>
      <args> x[63] x[407..415] </args>
      <args> x[305] x[425..433] </args>
      <args> x[23] x[407..415] </args>
      <args> x[208] x[452..460] </args>
      <args> x[364] x[416..424] </args>
      <args> x[300] x[380..388] </args>
      <args> x[41] x[389..397] </args>
      <args> x[187] x[443..451] </args>
      <args> x[182] x[398..406] </args>
      <args> x[8] x[452..460] </args>
      <args> x[248] x[452..460] </args>
      <args> x[188] x[452..460] </args>
      <args> x[227] x[443..451] </args>
      <args> x[269] x[461..469] </args>
      <args> x[343] x[407..415] </args>
      <args> x[149] x[461..469] </args>
      <args> x[242] x[398..406] </args>
      <args> x[84] x[416..424] </args>
      <args> x[6] x[434..442] </args>
      <args> x[68] x[452..460] </args>
      <args> x[205] x[425..433] </args>
      <args> x[181] x[389..397] </args>
      <args> x[169] x[461..469] </args>
      <args> x[204] x[416..424] </args>
      <args> x[83] x[407..415] </args>
      <args> x[223] x[407..415] </args>
      <args> x[324] x[416..424] </args>
      <args> x[321] x[389..397] </args>
      <args> x[307] x[443..451] </args>
      <args> x[109] x[461..469] </args>
      <args> x[268] x[452..460] </args>
      <args> x[82] x[398..406] </args>
      <args> x[367] x[443..451] </args>
      <args> x[24] x[416..424] </args>
      <args> x[62] x[398..406] </args>
      <args> x[304] x[416..424] </args>
      <args> x[326] x[434..442] </args>
      <args> x[226] x[434..442] </args>
      <args> x[146] x[434..442] </args>
      <args> x[363] x[407..415] </args>
      <args> x[224] x[416..424] </args>
      <args> x[105] x[425..433] </args>
      <args> x[368] x[452..460] </args>
      <args> x[344] x[416..424] </args>
      <args> x[160] x[380..388] </args>
      <args> x[183] x[407..415] </args>
      <args> x[103] x[407..415] </args>
      <args> x[341] x[389..397] </args>
      <args> x[141] x[389..397] </args>
      <args> x[281] x[389..397] </args>
      <args> x[328] x[452..460] </args>
      <args> x[286] x[434..442] </args>
      <args> x[47] x[443..451] </args>
      <args> x[240] x[380..388] </args>
      <args> x[1] x[389..397] </args>
      <args> x[366] x[434..442] </args>
      <args> x[2] x[398..406] </args>
      <args> x[203] x[407..415] </args>
      <args> x[125] x[425..433] </args>
      <args> x[7] x[443..451] </args>
      <args> x[120] x[380..388] </args>
      <args> x[143] x[407..415] </args>
      <args> x[283] x[407..415] </args>
      <args> x[322] x[398..406] </args>
      <args> x[162] x[398..406] </args>
      <args> x[29] x[461..469] </args>
      <args> x[80] x[380..388] </args>
      <args> x[167] x[443..451] </args>
      <args> x[288] x[452..460] </args>
      <args> x[89] x[461..469] </args>
      <args> x[165] x[425..433] </args>
      <args> x[140] x[380..388] </args>
      <args> x[289] x[461..469] </args>
      <args> x[61] x[389..397] </args>
      <args> x[249] x[461..469] </args>
      <args> x[161] x[389..397] </args>
      <args> x[348] x[452..460] </args>
      <args> x[121] x[389..397] </args>
      <args> x[142] x[398..406] </args>
      <args> x[360] x[380..388] </args>
      <args> x[362] x[398..406] </args>
      <args> x[320] x[380..388] </args>
      <args> x[243] x[407..415] </args>
      <args> x[342] x[398..406] </args>
      <args> x[365] x[425..433] </args>
      <args> x[184] x[416..424] </args>
      <args> x[42] x[398..406] </args>
      <args> x[246] x[434..442] </args>
      <args> x[123] x[407..415] </args>
      <args> x[60] x[380..388] </args>
      <args> x[241] x[389..397] </args>
      <args> x[200] x[380..388] </args>
      <args> x[285] x[425..433] </args>
      <args> x[22] x[398..406] </args>
      <args> x[67] x[443..451] </args>
      <args> x[229] x[461..469] </args>
      <args> x[207] x[443..451] </args>
      <args> x[245] x[425..433] </args>
      <args> x[185] x[425..433] </args>
      <args> x[101] x[389..397] </args>
      <args> x[168] x[452..460] </args>
      <args> x[266] x[434..442] </args>
      <args> x[225] x[425..433] </args>
      <args> x[301] x[389..397] </args>
      <args> x[247] x[443..451] </args>
      <args> x[209] x[461..469] </args>
      <args> x[361] x[389..397] </args>
      <args> x[221] x[389..397] </args>
      <args> x[262] x[398..406] </args>
      <args> x[222] x[398..406] </args>
      <args> x[69] x[461..469] </args>
      <args> x[129] x[461..469] </args>
      <args> x[302] x[398..406] </args>
      <args> x[347] x[443..451] </args>
      <args> x[303] x[407..415] </args>
      <args> x[327] x[443..451] </args>
      <args> x[44] x[416..424] </args>
      <args> x[345] x[425..433] </args>
      <args> x[308] x[452..460] </args>
      <args> x[349] x[461..469] </args>
      <args> x[124] x[416..424] </args>
      <args> x[145] x[425..433] </args>
      <args> x[5] x[425..433] </args>
      <args> x[148] x[452..460] </args>
      <args> x[87] x[443..451] </args>
      <args> x[325] x[425..433] </args>
      <args> x[28] x[452..460] </args>
      <args> x[107] x[443..451] </args>
      <args> x[100] x[380..388] </args>
      <args> x[166] x[434..442] </args>
      <args> x[20] x[380..388] </args>
      <args> x[108] x[452..460] </args>
      <args> x[0] x[380..388] </args>
      <args> x[329] x[461..469] </args>
      <args> x[244] x[416..424] </args>
      <args> x[201] x[389..397] </args>
      <args> x[66] x[434..442] </args>
      <args> x[46] x[434..442] </args>
      <args> x[228] x[452..460] </args>
      <args> x[122] x[398..406] </args>
      <args> x[21] x[389..397] </args>
      <args> x[284] x[416..424] </args>
      <args> x[127] x[443..451] </args>
      <args> x[43] x[407..415] </args>
      <args> x[85] x[425..433] </args>
      <args> x[189] x[461..469] </args>
      <args> x[369] x[461..469] </args>
      <args> x[4] x[416..424] </args>
      <args> x[144] x[416..424] </args>
      <args> x[309] x[461..469] </args>
      <args> x[263] x[407..415] </args>
      <args> x[81] x[389..397] </args>
      <args> x[49] x[461..469] </args>
      <args> x[261] x[389..397] </args>
      <args> x[48] x[452..460] </args>
      <args> x[260] x[380..388] </args>
      <args> x[202] x[398..406] </args>
      <args> x[186] x[434..442] </args>
      <args> x[45] x[425..433] </args>
      <args> x[346] x[434..442] </args>
      <args> x[282] x[398..406] </args>
      <args> x[86] x[434..442] </args>
      <args> x[106] x[434..442] </args>
      <args> x[287] x[443..451] </args>
      <args> x[264] x[416..424] </args>
      <args> x[206] x[434..442] </args>
      <args> x[164] x[416..424] </args>
      <args> x[64] x[416..424] </args>
      <args> x[147] x[443..451] </args>
      <args> x[25] x[425..433] </args>
      <args> x[65] x[425..433] </args>
      <args> x[280] x[380..388] </args>
      <args> x[163] x[407..415] </args>
      <args> x[88] x[452..460] </args>
      <args> x[126] x[434..442] </args>
      <args> x[102] x[398..406] </args>
      <args> x[323] x[407..415] </args>
      <args> x[26] x[434..442] </args>
      <args> x[306] x[434..442] </args>
    </group>
    <group>
      <sum>
        <list> %... </list>
        <coeffs> -1 1 1 1 1 1 1 1 1 1 1 </coeffs>
        <condition> (ge,0) </condition>
      </sum>
      <args> x[359] x[560..569] </args>
      <args> x[178] x[550..559] </args>
      <args> x[72] x[490..499] </args>
      <args> x[234] x[510..519] </args>
      <args> x[115] x[520..529] </args>
      <args> x[11] x[480..489] </args>
      <args> x[73] x[500..509] </args>
      <args> x[296] x[530..539] </args>
      <args> x[353] x[500..509] </args>
      <args> x[213] x[500..509] </args>
      <args> x[374] x[510..519] </args>
      <args> x[114] x[510..519] </args>
      <args> x[78] x[550..559] </args>
      <args> x[191] x[480..489] </args>
      <args> x[116] x[530..539] </args>
      <args> x[90] x[470..479] </args>
      <args> x[195] x[520..529] </args>
      <args> x[97] x[540..549] </args>
      <args> x[174] x[510..519] </args>
      <args> x[297] x[540..549] </args>
      <args> x[156] x[530..539] </args>
      <args> x[53] x[500..509] </args>
      <args> x[39] x[560..569] </args>
      <args> x[136] x[530..539] </args>
      <args> x[331] x[480..489] </args>
      <args> x[230] x[470..479] </args>
      <args> x[118] x[550..559] </args>
      <args> x[194] x[510..519] </args>
      <args> x[252] x[490..499] </args>
      <args> x[295] x[520..529] </args>
      <args> x[217] x[540..549] </args>
      <args> x[93] x[500..509] </args>
      <args> x[314] x[510..519] </args>
      <args> x[15] x[520..529] </args>
      <args> x[131] x[480..489] </args>
      <args> x[173] x[500..509] </args>
      <args> x[179] x[560..569] </args>
      <args> x[312] x[490..499] </args>
      <args> x[275] x[520..529] </args>
      <args> x[134] x[510..519] </args>
      <args> x[355] x[520..529] </args>
      <args> x[10] x[470..479] </args>
      <args> x[319] x[560..569] </args>
      <args> x[291] x[480..489] </args>
      <args> x[337] x[540..549] </args>
      <args> x[38] x[550..559] </args>
      <args> x[298] x[550..559] </args>
      <args> x[294] x[510..519] </args>
      <args> x[99] x[560..569] </args>
      <args> x[351] x[480..489] </args>
      <args> x[91] x[480..489] </args>
      <args> x[52] x[490..499] </args>
      <args> x[278] x[550..559] </args>
      <args> x[313] x[500..509] </args>
      <args> x[50] x[470..479] </args>
      <args> x[274] x[510..519] </args>
      <args> x[119] x[560..569] </args>
      <args> x[13] x[500..509] </args>
      <args> x[177] x[540..549] </args>
      <args> x[79] x[560..569] </args>
      <args> x[196] x[530..539] </args>
      <args> x[357] x[540..549] </args>
      <args> x[57] x[540..549] </args>
      <args> x[98] x[550..559] </args>
      <args> x[56] x[530..539] </args>
      <args> x[218] x[550..559] </args>
      <args> x[354] x[510..519] </args>
      <args> x[74] x[510..519] </args>
      <args> x[198] x[550..559] </args>
      <args> x[132] x[490..499] </args>
      <args> x[70] x[470..479] </args>
      <args> x[235] x[520..529] </args>
      <args> x[293] x[500..509] </args>
      <args> x[336] x[530..539] </args>
      <args> x[276] x[530..539] </args>
      <args> x[92] x[490..499] </args>
      <args> x[376] x[530..539] </args>
      <args> x[157] x[540..549] </args>
      <args> x[30] x[470..479] </args>
      <args> x[59] x[560..569] </args>
      <args> x[215] x[520..529] </args>
      <args> x[96] x[530..539] </args>
      <args> x[111] x[480..489] </args>
      <args> x[159] x[560..569] </args>
      <args> x[154] x[510..519] </args>
      <args> x[256] x[530..539] </args>
      <args> x[330] x[470..479] </args>
      <args> x[373] x[500..509] </args>
      <args> x[211] x[480..489] </args>
      <args> x[152] x[490..499] </args>
      <args> x[299] x[560..569] </args>
      <args> x[371] x[480..489] </args>
      <args> x[77] x[540..549] </args>
      <args> x[254] x[510..519] </args>
      <args> x[339] x[560..569] </args>
      <args> x[338] x[550..559] </args>
      <args> x[379] x[560..569] </args>
      <args> x[333] x[500..509] </args>
      <args> x[258] x[550..559] </args>
      <args> x[271] x[480..489] </args>
      <args> x[210] x[470..479] </args>
      <args> x[137] x[540..549] </args>
      <args> x[18] x[550..559] </args>
      <args> x[55] x[520..529] </args>
      <args> x[257] x[540..549] </args>
      <args> x[233] x[500..509] </args>
      <args> x[19] x[560..569] </args>
      <args> x[54] x[510..519] </args>
      <args> x[113] x[500..509] </args>
      <args> x[239] x[560..569] </args>
      <args> x[231] x[480..489] </args>
      <args> x[172] x[490..499] </args>
      <args> x[310] x[470..479] </args>
      <args> x[150] x[470..479] </args>
      <args> x[175] x[520..529] </args>
      <args> x[350] x[470..479] </args>
      <args> x[214] x[510..519] </args>
      <args> x[292] x[490..499] </args>
      <args> x[212] x[490..499] </args>
      <args> x[255] x[520..529] </args>
      <args> x[232] x[490..499] </args>
      <args> x[219] x[560..569] </args>
      <args> x[197] x[540..549] </args>
      <args> x[290] x[470..479] </args>
      <args> x[76] x[530..539] </args>
      <args> x[315] x[520..529] </args>
      <args> x[51] x[480..489] </args>
      <args> x[253] x[500..509] </args>
      <args> x[317] x[540..549] </args>
      <args> x[133] x[500..509] </args>
      <args> x[372] x[490..499] </args>
      <args> x[12] x[490..499] </args>
      <args> x[279] x[560..569] </args>
      <args> x[151] x[480..489] </args>
      <args> x[35] x[520..529] </args>
      <args> x[170] x[470..479] </args>
      <args> x[58] x[550..559] </args>
      <args> x[375] x[520..529] </args>
      <args> x[31] x[480..489] </args>
      <args> x[14] x[510..519] </args>
      <args> x[277] x[540..549] </args>
      <args> x[378] x[550..559] </args>
      <args> x[138] x[550..559] </args>
      <args> x[94] x[510..519] </args>
      <args> x[270] x[470..479] </args>
      <args> x[311] x[480..489] </args>
      <args> x[34] x[510..519] </args>
      <args> x[259] x[560..569] </args>
      <args> x[190] x[470..479] </args>
      <args> x[273] x[500..509] </args>
      <args> x[334] x[510..519] </args>
      <args> x[272] x[490..499] </args>
      <args> x[332] x[490..499] </args>
      <args> x[335] x[520..529] </args>
      <args> x[370] x[470..479] </args>
      <args> x[112] x[490..499] </args>
      <args> x[158] x[550..559] </args>
      <args> x[176] x[530..539] </args>
      <args> x[238] x[550..559] </args>
      <args> x[71] x[480..489] </args>
      <args> x[377] x[540..549] </args>
      <args> x[171] x[480..489] </args>
      <args> x[316] x[530..539] </args>
      <args> x[153] x[500..509] </args>
      <args> x[117] x[540..549] </args>
      <args> x[192] x[490..499] </args>
      <args> x[155] x[520..529] </args>
      <args> x[237] x[540..549] </args>
      <args> x[358] x[550..559] </args>
      <args> x[95] x[520..529] </args>
      <args> x[135] x[520..529] </args>
      <args> x[356] x[530..539] </args>
      <args> x[75] x[520..529] </args>
      <args> x[17] x[540..549] </args>
      <args> x[33] x[500..509] </args>
      <args> x[216] x[530..539] </args>
      <args> x[130] x[470..479] </args>
      <args> x[251] x[480..489] </args>
      <args> x[318] x[550..559] </args>
      <args> x[36] x[530..539] </args>
      <args> x[16] x[530..539] </args>
      <args> x[37] x[540..549] </args>
      <args> x[193] x[500..509] </args>
      <args> x[139] x[560..569] </args>
      <args> x[352] x[490..499] </args>
      <args> x[199] x[560..569] </args>
      <args> x[236] x[530..539] </args>
      <args> x[110] x[470..479] </args>
      <args> x[250] x[470..479] </args>
      <args> x[32] x[490..499] </args>
    </group>
    <group>
      <sum>
        <list> %... </list>
        <condition> (ge,1) </condition>
      </sum>
      <args> x[300..319] </args>
      <args> x[80..99] </args>
      <args> x[100..119] </args>
      <args> x[0..19] </args>
      <args> x[140..159] </args>
      <args> x[160..179] </args>
      <args> x[120..139] </args>
      <args> x[200..219] </args>
      <args> x[180..199] </args>
      <args> x[360..379] </args>
      <args> x[260..279] </args>
      <args> x[40..59] </args>
      <args> x[340..359] </args>
      <args> x[280..299] </args>
      <args> x[240..259] </args>
      <args> x[20..39] </args>
      <args> x[220..239] </args>
      <args> x[60..79] </args>
      <args> x[320..339] </args>
    </group>
    <group>
      <sum>
        <list> %... </list>
        <coeffs> -1 -1 -1 -1 -1 -1 -1 -1 -1 -1 -1 -1 -1 -1 -1 -1 -1 -1 -1 </coeffs>
        <condition> (ge,-1) </condition>
      </sum>
      <args> x[0] x[20] x[40] x[60] x[80] x[100] x[120] x[140] x[160] x[180] x[200] x[220] x[240] x[260] x[280] x[300] x[320] x[340] x[360] </args>
      <args> x[1] x[21] x[41] x[61] x[81] x[101] x[121] x[141] x[161] x[181] x[201] x[221] x[241] x[261] x[281] x[301] x[321] x[341] x[361] </args>
      <args> x[2] x[22] x[42] x[62] x[82] x[102] x[122] x[142] x[162] x[182] x[202] x[222] x[242] x[262] x[282] x[302] x[322] x[342] x[362] </args>
      <args> x[3] x[23] x[43] x[63] x[83] x[103] x[123] x[143] x[163] x[183] x[203] x[223] x[243] x[263] x[283] x[303] x[323] x[343] x[363] </args>
      <args> x[4] x[24] x[44] x[64] x[84] x[104] x[124] x[144] x[164] x[184] x[204] x[224] x[244] x[264] x[284] x[304] x[324] x[344] x[364] </args>
      <args> x[5] x[25] x[45] x[65] x[85] x[105] x[125] x[145] x[165] x[185] x[205] x[225] x[245] x[265] x[285] x[305] x[325] x[345] x[365] </args>
      <args> x[6] x[26] x[46] x[66] x[86] x[106] x[126] x[146] x[166] x[186] x[206] x[226] x[246] x[266] x[286] x[306] x[326] x[346] x[366] </args>
      <args> x[7] x[27] x[47] x[67] x[87] x[107] x[127] x[147] x[167] x[187] x[207] x[227] x[247] x[267] x[287] x[307] x[327] x[347] x[367] </args>
      <args> x[8] x[28] x[48] x[68] x[88] x[108] x[128] x[148] x[168] x[188] x[208] x[228] x[248] x[268] x[288] x[308] x[328] x[348] x[368] </args>
      <args> x[9] x[29] x[49] x[69] x[89] x[109] x[129] x[149] x[169] x[189] x[209] x[229] x[249] x[269] x[289] x[309] x[329] x[349] x[369] </args>
      <args> x[10] x[30] x[50] x[70] x[90] x[110] x[130] x[150] x[170] x[190] x[210] x[230] x[250] x[270] x[290] x[310] x[330] x[350] x[370] </args>
      <args> x[11] x[31] x[51] x[71] x[91] x[111] x[131] x[151] x[171] x[191] x[211] x[231] x[251] x[271] x[291] x[311] x[331] x[351] x[371] </args>
      <args> x[12] x[32] x[52] x[72] x[92] x[112] x[132] x[152] x[172] x[192] x[212] x[232] x[252] x[272] x[292] x[312] x[332] x[352] x[372] </args>
      <args> x[13] x[33] x[53] x[73] x[93] x[113] x[133] x[153] x[173] x[193] x[213] x[233] x[253] x[273] x[293] x[313] x[333] x[353] x[373] </args>
      <args> x[14] x[34] x[54] x[74] x[94] x[114] x[134] x[154] x[174] x[194] x[214] x[234] x[254] x[274] x[294] x[314] x[334] x[354] x[374] </args>
      <args> x[15] x[35] x[55] x[75] x[95] x[115] x[135] x[155] x[175] x[195] x[215] x[235] x[255] x[275] x[295] x[315] x[335] x[355] x[375] </args>
      <args> x[16] x[36] x[56] x[76] x[96] x[116] x[136] x[156] x[176] x[196] x[216] x[236] x[256] x[276] x[296] x[316] x[336] x[356] x[376] </args>
      <args> x[17] x[37] x[57] x[77] x[97] x[117] x[137] x[157] x[177] x[197] x[217] x[237] x[257] x[277] x[297] x[317] x[337] x[357] x[377] </args>
      <args> x[18] x[38] x[58] x[78] x[98] x[118] x[138] x[158] x[178] x[198] x[218] x[238] x[258] x[278] x[298] x[318] x[338] x[358] x[378] </args>
      <args> x[19] x[39] x[59] x[79] x[99] x[119] x[139] x[159] x[179] x[199] x[219] x[239] x[259] x[279] x[299] x[319] x[339] x[359] x[379] </args>
    </group>
    <group>
      <sum>
        <list> %... </list>
        <coeffs> -1 -1 -1 -1 -1 -1 -1 -1 -1 -1 </coeffs>
        <condition> (ge,-1) </condition>
      </sum>
      <args> x[380] x[389] x[398] x[407] x[416] x[425] x[434] x[443] x[452] x[461] </args>
      <args> x[381] x[390] x[399] x[408] x[417] x[426] x[435] x[444] x[453] x[462] </args>
      <args> x[382] x[391] x[400] x[409] x[418] x[427] x[436] x[445] x[454] x[463] </args>
      <args> x[383] x[392] x[401] x[410] x[419] x[428] x[437] x[446] x[455] x[464] </args>
      <args> x[384] x[393] x[402] x[411] x[420] x[429] x[438] x[447] x[456] x[465] </args>
      <args> x[385] x[394] x[403] x[412] x[421] x[430] x[439] x[448] x[457] x[466] </args>
      <args> x[386] x[395] x[404] x[413] x[422] x[431] x[440] x[449] x[458] x[467] </args>
      <args> x[387] x[396] x[405] x[414] x[423] x[432] x[441] x[450] x[459] x[468] </args>
      <args> x[388] x[397] x[406] x[415] x[424] x[433] x[442] x[451] x[460] x[469] </args>
      <args> x[470] x[480] x[490] x[500] x[510] x[520] x[530] x[540] x[550] x[560] </args>
      <args> x[471] x[481] x[491] x[501] x[511] x[521] x[531] x[541] x[551] x[561] </args>
      <args> x[472] x[482] x[492] x[502] x[512] x[522] x[532] x[542] x[552] x[562] </args>
      <args> x[473] x[483] x[493] x[503] x[513] x[523] x[533] x[543] x[553] x[563] </args>
      <args> x[474] x[484] x[494] x[504] x[514] x[524] x[534] x[544] x[554] x[564] </args>
      <args> x[475] x[485] x[495] x[505] x[515] x[525] x[535] x[545] x[555] x[565] </args>
      <args> x[476] x[486] x[496] x[506] x[516] x[526] x[536] x[546] x[556] x[566] </args>
      <args> x[477] x[487] x[497] x[507] x[517] x[527] x[537] x[547] x[557] x[567] </args>
      <args> x[478] x[488] x[498] x[508] x[518] x[528] x[538] x[548] x[558] x[568] </args>
      <args> x[479] x[489] x[499] x[509] x[519] x[529] x[539] x[549] x[559] x[569] </args>
    </group>
  </constraints>
</instance>

